/* ==============================================================
   Generated city: 5×4 grid  |  20 blocks  |  k=4 districts
   Parties     : Red, Blue
   Favoured    : Red
   Epsilon     : 0.1
   Pop avg     : 4376   window [3938, 4814]
   Random seed : random
   ============================================================== */

data;

set B := 1 2 3 4 5 6 7 8 9 10 11 12 13 14 15 16 17 18 19 20;
set P := Red Blue;

param k       := 4;
param epsilon := 0.1;
param fav     := Red;

param pop :=
   1   816    2   934    3   728    4   725
   5   750    6   891    7   933    8   874
   9   745   10  1084   11   944   12  1044
  13   797   14   864   15   613   16  1032
  17  1003   18  1060   19   941   20   726
;

param votes :
          Red   Blue :=
     1    478    327
     2    245    548
     3    685    232
     4    349    412
     5    292    537
     6    549    141
     7    351    340
     8    452    156
     9    352    415
    10    618    192
    11    319    505
    12    473    287
    13    467    261
    14    602    221
    15    482    400
    16    448    508
    17    361    441
    18    572    261
    19    631    231
    20    322    435
;

/* Adjacency: 1 if blocks share an edge in the 5×4 grid */
param adj :
    1    2    3    4    5    6    7    8    9   10   11   12   13   14   15   16   17   18   19   20 :=
  1    0    1    0    0    1    0    0    0    0    0    0    0    0    0    0    0    0    0    0    0
  2    1    0    1    0    0    1    0    0    0    0    0    0    0    0    0    0    0    0    0    0
  3    0    1    0    1    0    0    1    0    0    0    0    0    0    0    0    0    0    0    0    0
  4    0    0    1    0    0    0    0    1    0    0    0    0    0    0    0    0    0    0    0    0
  5    1    0    0    0    0    1    0    0    1    0    0    0    0    0    0    0    0    0    0    0
  6    0    1    0    0    1    0    1    0    0    1    0    0    0    0    0    0    0    0    0    0
  7    0    0    1    0    0    1    0    1    0    0    1    0    0    0    0    0    0    0    0    0
  8    0    0    0    1    0    0    1    0    0    0    0    1    0    0    0    0    0    0    0    0
  9    0    0    0    0    1    0    0    0    0    1    0    0    1    0    0    0    0    0    0    0
 10    0    0    0    0    0    1    0    0    1    0    1    0    0    1    0    0    0    0    0    0
 11    0    0    0    0    0    0    1    0    0    1    0    1    0    0    1    0    0    0    0    0
 12    0    0    0    0    0    0    0    1    0    0    1    0    0    0    0    1    0    0    0    0
 13    0    0    0    0    0    0    0    0    1    0    0    0    0    1    0    0    1    0    0    0
 14    0    0    0    0    0    0    0    0    0    1    0    0    1    0    1    0    0    1    0    0
 15    0    0    0    0    0    0    0    0    0    0    1    0    0    1    0    1    0    0    1    0
 16    0    0    0    0    0    0    0    0    0    0    0    1    0    0    1    0    0    0    0    1
 17    0    0    0    0    0    0    0    0    0    0    0    0    1    0    0    0    0    1    0    0
 18    0    0    0    0    0    0    0    0    0    0    0    0    0    1    0    0    1    0    1    0
 19    0    0    0    0    0    0    0    0    0    0    0    0    0    0    1    0    0    1    0    1
 20    0    0    0    0    0    0    0    0    0    0    0    0    0    0    0    1    0    0    1    0
;

end;
